p tw 35 153
0 1
0 2
0 3
0 4
0 12
0 13
0 11
0 21
0 16
0 22
0 19
0 20
0 23
0 24
0 15
0 32
1 2
1 3
1 4
1 23
1 24
1 26
2 3
2 4
2 11
2 21
2 16
2 22
2 5
2 23
2 24
2 33
2 34
3 4
3 11
3 27
3 30
3 31
3 16
3 33
3 34
4 5
4 6
4 7
4 8
4 12
4 13
4 11
4 21
4 28
4 32
4 23
4 24
4 26
5 6
5 7
5 8
5 23
5 24
5 14
5 19
5 31
6 7
6 8
6 16
6 20
6 21
7 8
7 18
7 26
7 29
8 9
8 10
8 11
8 18
8 19
8 26
8 29
8 14
8 31
9 10
9 11
10 11
10 18
10 19
11 14
11 15
11 16
11 17
11 21
11 12
11 24
11 25
11 26
11 22
11 27
11 28
11 30
11 31
11 32
11 34
12 13
12 24
12 25
12 26
12 28
12 32
14 15
14 16
14 17
14 22
14 27
14 28
14 19
14 31
14 34
15 16
15 17
15 21
15 32
16 17
16 20
16 21
16 22
16 33
16 34
17 34
18 19
18 26
18 29
19 20
19 23
19 24
19 31
20 21
20 23
20 24
21 22
21 32
22 27
22 28
23 24
23 26
24 25
24 26
25 26
26 29
27 28
27 30
27 31
28 32
30 31
33 34
